\ENCODING=ISO-8859-1
\Problem name: ilog.cplex

Maximize
 obj: f0,0 + x0,11,0 + f0,1 + x0,11,1 + f0,2 + x0,11,2 + f0,3 + x0,11,3
Subject To
 c100_140:  x1,4,0  = 0
 c100_141:  x1,4,1  = 0
 c100_142:  x1,4,2  = 0
 c100_143:  x1,4,3  = 0
 c100_230:  x2,3,0  = 0
 c100_231:  x2,3,1  = 0
 c100_232:  x2,3,2  = 0
 c100_233:  x2,3,3  = 0
 c100_670:  x6,7,0  = 0
 c100_671:  x6,7,1  = 0
 c100_672:  x6,7,2  = 0
 c100_673:  x6,7,3  = 0
 c100_1010: x10,1,0  = 0
 c100_1011: x10,1,1  = 0
 c100_1012: x10,1,2  = 0
 c100_1013: x10,1,3  = 0
 c1_00:     s0 + x10,0,0 - f0,0 - x0,11,0  = 0
 c15_00:    s0 + x10,0,0 <= 1
 c1_10:     s1 + x11,1,0 - f1,0 - x1,2,0 - y1,4,0  = 0
 c15_10:    s1 + x11,1,0 <= 1
 c1_20:     x1,2,0 + s2 - f2,0 - y2,3,0  = 0
 c15_20:    x1,2,0 + s2 <= 1
 c1_30:     s3 - f3,0 - x3,4,0  = 0
 c15_30:    s3 <= 1
 c1_40:     x3,4,0 + s4 - f4,0 - x4,5,0  = 0
 c15_40:    x3,4,0 + s4 <= 1
 c1_50:     x4,5,0 + s5 - f5,0 - x5,6,0  = 0
 c15_50:    x4,5,0 + s5 <= 1
 c1_60:     x5,6,0 + s6 - f6,0 - y6,7,0  = 0
 c15_60:    x5,6,0 + s6 <= 1
 c1_70:     s7 - f7,0 - x7,8,0  = 0
 c15_70:    s7 <= 1
 c1_80:     x7,8,0 + s8 - f8,0 - x8,9,0 - y8,9,0  = 0
 c15_80:    x7,8,0 + s8 <= 1
 c1_90:     x8,9,0 + s9 - f9,0  = 0
 c15_90:    x8,9,0 + s9 <= 1
 c1_100:    - x10,0,0 + s10 - f10,0 - y10,1,0  = 0
 c15_100:   s10 <= 1
 c1_110:    x0,11,0 - x11,1,0 + s11 - f11,0  = 0
 c15_110:   x0,11,0 + s11 <= 1
 c1_01:     x10,0,1 - f0,1 - x0,11,1  = 0
 c15_01:    x10,0,1 <= 1
 c1_11:     y10,1,0 + x11,1,1 - f1,1 - x1,2,1 - y1,4,1  = 0
 c15_11:    y10,1,0 + x11,1,1 <= 1
 c1_21:     x1,2,1 - f2,1 - y2,3,1  = 0
 c15_21:    x1,2,1 <= 1
 c1_31:     y2,3,0 - f3,1 - x3,4,1  = 0
 c15_31:    y2,3,0 <= 1
 c1_41:     y1,4,0 + x3,4,1 - f4,1 - x4,5,1  = 0
 c15_41:    y1,4,0 + x3,4,1 <= 1
 c1_51:     x4,5,1 - f5,1 - x5,6,1  = 0
 c15_51:    x4,5,1 <= 1
 c1_61:     x5,6,1 - f6,1 - y6,7,1  = 0
 c15_61:    x5,6,1 <= 1
 c1_71:     y6,7,0 - f7,1 - x7,8,1  = 0
 c15_71:    y6,7,0 <= 1
 c1_81:     x7,8,1 - f8,1 - x8,9,1 - y8,9,1  = 0
 c15_81:    x7,8,1 <= 1
 c1_91:     y8,9,0 + x8,9,1 - f9,1  = 0
 c15_91:    y8,9,0 + x8,9,1 <= 1
 c1_101:    - x10,0,1 - f10,1 - y10,1,1  = 0
 c15_101:   <= 1
 c1_111:    x0,11,1 - x11,1,1 - f11,1  = 0
 c15_111:   x0,11,1 <= 1
 c1_02:     x10,0,2 - f0,2 - x0,11,2  = 0
 c15_02:    x10,0,2 <= 1
 c1_12:     y10,1,1 + x11,1,2 - f1,2 - x1,2,2 - y1,4,2  = 0
 c15_12:    y10,1,1 + x11,1,2 <= 1
 c1_22:     x1,2,2 - f2,2 - y2,3,2  = 0
 c15_22:    x1,2,2 <= 1
 c1_32:     y2,3,1 - f3,2 - x3,4,2  = 0
 c15_32:    y2,3,1 <= 1
 c1_42:     y1,4,1 + x3,4,2 - f4,2 - x4,5,2  = 0
 c15_42:    y1,4,1 + x3,4,2 <= 1
 c1_52:     x4,5,2 - f5,2 - x5,6,2  = 0
 c15_52:    x4,5,2 <= 1
 c1_62:     x5,6,2 - f6,2 - y6,7,2  = 0
 c15_62:    x5,6,2 <= 1
 c1_72:     y6,7,1 - f7,2 - x7,8,2  = 0
 c15_72:    y6,7,1 <= 1
 c1_82:     x7,8,2 - f8,2 - x8,9,2 - y8,9,2  = 0
 c15_82:    x7,8,2 <= 1
 c1_92:     y8,9,1 + x8,9,2 - f9,2  = 0
 c15_92:    y8,9,1 + x8,9,2 <= 1
 c1_102:    - x10,0,2 - f10,2 - y10,1,2  = 0
 c15_102:   <= 1
 c1_112:    x0,11,2 - x11,1,2 - f11,2  = 0
 c15_112:   x0,11,2 <= 1
 c1_03:     x10,0,3 - f0,3 - x0,11,3  = 0
 c15_03:    x10,0,3 <= 1
 c1_13:     y10,1,2 + x11,1,3 - f1,3 - x1,2,3  = 0
 c15_13:    y10,1,2 + x11,1,3 <= 1
 c1_23:     x1,2,3 - f2,3  = 0
 c15_23:    x1,2,3 <= 1
 c1_33:     y2,3,2 - f3,3 - x3,4,3  = 0
 c15_33:    y2,3,2 <= 1
 c1_43:     y1,4,2 + x3,4,3 - f4,3 - x4,5,3  = 0
 c15_43:    y1,4,2 + x3,4,3 <= 1
 c1_53:     x4,5,3 - f5,3 - x5,6,3  = 0
 c15_53:    x4,5,3 <= 1
 c1_63:     x5,6,3 - f6,3  = 0
 c15_63:    x5,6,3 <= 1
 c1_73:     y6,7,2 - f7,3 - x7,8,3  = 0
 c15_73:    y6,7,2 <= 1
 c1_83:     x7,8,3 - f8,3 - x8,9,3  = 0
 c15_83:    x7,8,3 <= 1
 c1_93:     y8,9,2 + x8,9,3 - f9,3  = 0
 c15_93:    y8,9,2 + x8,9,3 <= 1
 c1_103:    - x10,0,3 - f10,3  = 0
 c15_103:   <= 1
 c1_113:    x0,11,3 - x11,1,3 - f11,3  = 0
 c15_113:   x0,11,3 <= 1
 c2:        s0 + s1 + s2 + s3 + s4 + s5 + s6 + s7 + s8 + s9 + s10 + s11  = 1
 c3:        f0,0 + f1,0 + f2,0 + f3,0 + f4,0 + f5,0 + f6,0 + f7,0 + f8,0 + f9,0
            + f10,0 + f11,0 + f0,1 + f1,1 + f2,1 + f3,1 + f4,1 + f5,1 + f6,1
            + f7,1 + f8,1 + f9,1 + f10,1 + f11,1 + f0,2 + f1,2 + f2,2 + f3,2
            + f4,2 + f5,2 + f6,2 + f7,2 + f8,2 + f9,2 + f10,2 + f11,2 + f0,3
            + f1,3 + f2,3 + f3,3 + f4,3 + f5,3 + f6,3 + f7,3 + f8,3 + f9,3
            + f10,3 + f11,3  = 1
 c4_0:      110 x1,4,0 + 70 x2,3,0 + 120 x6,7,0 + 75 x10,1,0 + 75 x10,0,0
            + 140 f0,0 + 140 x0,11,0 + 135 x11,1,0 + 110 f1,0 + 110 x1,2,0
            + 110 y1,4,0 + 70 f2,0 + 70 y2,3,0 + 80 f3,0 + 80 x3,4,0 + 105 f4,0
            + 105 x4,5,0 + 95 f5,0 + 95 x5,6,0 + 120 f6,0 + 120 y6,7,0
            + 145 f7,0 + 145 x7,8,0 + 185 f8,0 + 185 x8,9,0 + 185 y8,9,0
            + 195 f9,0 + 75 f10,0 + 75 y10,1,0 + 135 f11,0 <= 540
 c4_1:      110 x1,4,1 + 70 x2,3,1 + 120 x6,7,1 + 75 x10,1,1 + 75 x10,0,1
            + 140 f0,1 + 140 x0,11,1 + 135 x11,1,1 + 110 f1,1 + 110 x1,2,1
            + 110 y1,4,1 + 70 f2,1 + 70 y2,3,1 + 80 f3,1 + 80 x3,4,1 + 105 f4,1
            + 105 x4,5,1 + 95 f5,1 + 95 x5,6,1 + 120 f6,1 + 120 y6,7,1
            + 145 f7,1 + 145 x7,8,1 + 185 f8,1 + 185 x8,9,1 + 185 y8,9,1
            + 195 f9,1 + 75 f10,1 + 75 y10,1,1 + 135 f11,1 <= 540
 c4_2:      110 x1,4,2 + 70 x2,3,2 + 120 x6,7,2 + 75 x10,1,2 + 75 x10,0,2
            + 140 f0,2 + 140 x0,11,2 + 135 x11,1,2 + 110 f1,2 + 110 x1,2,2
            + 110 y1,4,2 + 70 f2,2 + 70 y2,3,2 + 80 f3,2 + 80 x3,4,2 + 105 f4,2
            + 105 x4,5,2 + 95 f5,2 + 95 x5,6,2 + 120 f6,2 + 120 y6,7,2
            + 145 f7,2 + 145 x7,8,2 + 185 f8,2 + 185 x8,9,2 + 185 y8,9,2
            + 195 f9,2 + 75 f10,2 + 75 y10,1,2 + 135 f11,2 <= 540
 c4_3:      110 x1,4,3 + 70 x2,3,3 + 120 x6,7,3 + 75 x10,1,3 + 75 x10,0,3
            + 140 f0,3 + 140 x0,11,3 + 135 x11,1,3 + 110 f1,3 + 110 x1,2,3
            + 70 f2,3 + 80 f3,3 + 80 x3,4,3 + 105 f4,3 + 105 x4,5,3 + 95 f5,3
            + 95 x5,6,3 + 120 f6,3 + 145 f7,3 + 145 x7,8,3 + 185 f8,3
            + 185 x8,9,3 + 195 f9,3 + 75 f10,3 + 135 f11,3 <= 540
 c5_1:      - 1410 s0 + 1550 f0,0 - 2175 s1 + 2285 f1,0 + 2285 y1,4,0 - 2565 s2
            + 2635 f2,0 + 2635 y2,3,0 - 3575 s3 + 3655 f3,0 - 3700 s4
            + 3805 f4,0 - 3945 s5 + 4040 f5,0 - 4085 s6 + 4205 f6,0
            + 4205 y6,7,0 - 4970 s7 + 5115 f7,0 - 5355 s8 + 5540 f8,0
            + 5540 y8,9,0 - 6290 s9 + 6485 f9,0 - 815 s10 + 890 f10,0
            + 890 y10,1,0 - 1940 s11 + 2075 f11,0 - 10080 x128 <= -9330
 c5_2:      - 1410 s0 + 1550 f0,0 - 2175 s1 + 2285 f1,0 + 2285 y1,4,0 - 2565 s2
            + 2635 f2,0 + 2635 y2,3,0 - 3575 s3 + 3655 f3,0 - 3700 s4
            + 3805 f4,0 - 3945 s5 + 4040 f5,0 - 4085 s6 + 4205 f6,0
            + 4205 y6,7,0 - 4970 s7 + 5115 f7,0 - 5355 s8 + 5540 f8,0
            + 5540 y8,9,0 - 6290 s9 + 6485 f9,0 - 815 s10 + 890 f10,0
            + 890 y10,1,0 - 1940 s11 + 2075 f11,0 - 10080 x128 >= -10080
 c6_11:     - 3700 y1,4,0 - 3575 y2,3,0 - 4970 y6,7,0 - 6290 y8,9,0
            - 2175 y10,1,0 + 1550 f0,1 + 2285 f1,1 + 2285 y1,4,1 + 2635 f2,1
            + 2635 y2,3,1 + 3655 f3,1 + 3805 f4,1 + 4040 f5,1 + 4205 f6,1
            + 4205 y6,7,1 + 5115 f7,1 + 5540 f8,1 + 5540 y8,9,1 + 6485 f9,1
            + 890 f10,1 + 890 y10,1,1 + 2075 f11,1 - 10080 x129 <= -9330
 c6_21:     - 3700 y1,4,0 - 3575 y2,3,0 - 4970 y6,7,0 - 6290 y8,9,0
            - 2175 y10,1,0 + 1550 f0,1 + 2285 f1,1 + 2285 y1,4,1 + 2635 f2,1
            + 2635 y2,3,1 + 3655 f3,1 + 3805 f4,1 + 4040 f5,1 + 4205 f6,1
            + 4205 y6,7,1 + 5115 f7,1 + 5540 f8,1 + 5540 y8,9,1 + 6485 f9,1
            + 890 f10,1 + 890 y10,1,1 + 2075 f11,1 - 10080 x129 >= -10080
 c7_11:     - 1410 s0 - 2175 s1 - 2565 s2 - 3575 s3 - 3700 s4 - 3945 s5
            - 4085 s6 - 4970 s7 - 5355 s8 - 6290 s9 - 815 s10 - 1940 s11
            + 1550 f0,1 + 2285 f1,1 + 2285 y1,4,1 + 2635 f2,1 + 2635 y2,3,1
            + 3655 f3,1 + 3805 f4,1 + 4040 f5,1 + 4205 f6,1 + 4205 y6,7,1
            + 5115 f7,1 + 5540 f8,1 + 5540 y8,9,1 + 6485 f9,1 + 890 f10,1
            + 890 y10,1,1 + 2075 f11,1 - 10080 x130 <= -4320
 c7_21:     - 1410 s0 - 2175 s1 - 2565 s2 - 3575 s3 - 3700 s4 - 3945 s5
            - 4085 s6 - 4970 s7 - 5355 s8 - 6290 s9 - 815 s10 - 1940 s11
            + 1550 f0,1 + 2285 f1,1 + 2285 y1,4,1 + 2635 f2,1 + 2635 y2,3,1
            + 3655 f3,1 + 3805 f4,1 + 4040 f5,1 + 4205 f6,1 + 4205 y6,7,1
            + 5115 f7,1 + 5540 f8,1 + 5540 y8,9,1 + 6485 f9,1 + 890 f10,1
            + 890 y10,1,1 + 2075 f11,1 - 10080 x130 >= -10080
 c6_12:     - 3700 y1,4,1 - 3575 y2,3,1 - 4970 y6,7,1 - 6290 y8,9,1
            - 2175 y10,1,1 + 1550 f0,2 + 2285 f1,2 + 2285 y1,4,2 + 2635 f2,2
            + 2635 y2,3,2 + 3655 f3,2 + 3805 f4,2 + 4040 f5,2 + 4205 f6,2
            + 4205 y6,7,2 + 5115 f7,2 + 5540 f8,2 + 5540 y8,9,2 + 6485 f9,2
            + 890 f10,2 + 890 y10,1,2 + 2075 f11,2 - 10080 x131 <= -9330
 c6_22:     - 3700 y1,4,1 - 3575 y2,3,1 - 4970 y6,7,1 - 6290 y8,9,1
            - 2175 y10,1,1 + 1550 f0,2 + 2285 f1,2 + 2285 y1,4,2 + 2635 f2,2
            + 2635 y2,3,2 + 3655 f3,2 + 3805 f4,2 + 4040 f5,2 + 4205 f6,2
            + 4205 y6,7,2 + 5115 f7,2 + 5540 f8,2 + 5540 y8,9,2 + 6485 f9,2
            + 890 f10,2 + 890 y10,1,2 + 2075 f11,2 - 10080 x131 >= -10080
 c7_12:     - 1410 s0 - 2175 s1 - 2565 s2 - 3575 s3 - 3700 s4 - 3945 s5
            - 4085 s6 - 4970 s7 - 5355 s8 - 6290 s9 - 815 s10 - 1940 s11
            + 1550 f0,2 + 2285 f1,2 + 2285 y1,4,2 + 2635 f2,2 + 2635 y2,3,2
            + 3655 f3,2 + 3805 f4,2 + 4040 f5,2 + 4205 f6,2 + 4205 y6,7,2
            + 5115 f7,2 + 5540 f8,2 + 5540 y8,9,2 + 6485 f9,2 + 890 f10,2
            + 890 y10,1,2 + 2075 f11,2 - 10080 x132 <= -4320
 c7_22:     - 1410 s0 - 2175 s1 - 2565 s2 - 3575 s3 - 3700 s4 - 3945 s5
            - 4085 s6 - 4970 s7 - 5355 s8 - 6290 s9 - 815 s10 - 1940 s11
            + 1550 f0,2 + 2285 f1,2 + 2285 y1,4,2 + 2635 f2,2 + 2635 y2,3,2
            + 3655 f3,2 + 3805 f4,2 + 4040 f5,2 + 4205 f6,2 + 4205 y6,7,2
            + 5115 f7,2 + 5540 f8,2 + 5540 y8,9,2 + 6485 f9,2 + 890 f10,2
            + 890 y10,1,2 + 2075 f11,2 - 10080 x132 >= -10080
 c6_13:     - 3700 y1,4,2 - 3575 y2,3,2 - 4970 y6,7,2 - 6290 y8,9,2
            - 2175 y10,1,2 + 1550 f0,3 + 2285 f1,3 + 2635 f2,3 + 3655 f3,3
            + 3805 f4,3 + 4040 f5,3 + 4205 f6,3 + 5115 f7,3 + 5540 f8,3
            + 6485 f9,3 + 890 f10,3 + 2075 f11,3 - 10080 x133 <= -9330
 c6_23:     - 3700 y1,4,2 - 3575 y2,3,2 - 4970 y6,7,2 - 6290 y8,9,2
            - 2175 y10,1,2 + 1550 f0,3 + 2285 f1,3 + 2635 f2,3 + 3655 f3,3
            + 3805 f4,3 + 4040 f5,3 + 4205 f6,3 + 5115 f7,3 + 5540 f8,3
            + 6485 f9,3 + 890 f10,3 + 2075 f11,3 - 10080 x133 >= -10080
 c7_13:     - 1410 s0 - 2175 s1 - 2565 s2 - 3575 s3 - 3700 s4 - 3945 s5
            - 4085 s6 - 4970 s7 - 5355 s8 - 6290 s9 - 815 s10 - 1940 s11
            + 1550 f0,3 + 2285 f1,3 + 2635 f2,3 + 3655 f3,3 + 3805 f4,3
            + 4040 f5,3 + 4205 f6,3 + 5115 f7,3 + 5540 f8,3 + 6485 f9,3
            + 890 f10,3 + 2075 f11,3 - 10080 x134 <= -4320
 c7_23:     - 1410 s0 - 2175 s1 - 2565 s2 - 3575 s3 - 3700 s4 - 3945 s5
            - 4085 s6 - 4970 s7 - 5355 s8 - 6290 s9 - 815 s10 - 1940 s11
            + 1550 f0,3 + 2285 f1,3 + 2635 f2,3 + 3655 f3,3 + 3805 f4,3
            + 4040 f5,3 + 4205 f6,3 + 5115 f7,3 + 5540 f8,3 + 6485 f9,3
            + 890 f10,3 + 2075 f11,3 - 10080 x134 >= -10080
 c9_2:      y1,4,2 + y2,3,2 + y6,7,2 + y8,9,2 + y10,1,2 - f0,3 - f1,3 - f2,3
            - f3,3 - f4,3 - f5,3 - f6,3 - f7,3 - f8,3 - f9,3 - f10,3 - f11,3
             = 0
 c10_2:     - y1,4,1 - y2,3,1 - y6,7,1 - y8,9,1 - y10,1,1 + y1,4,2 + y2,3,2
            + y6,7,2 + y8,9,2 + y10,1,2 <= 0
 c9_1:      y1,4,1 + y2,3,1 + y6,7,1 + y8,9,1 + y10,1,1 - f0,2 - f1,2 - f2,2
            - f3,2 - f4,2 - f5,2 - f6,2 - f7,2 - f8,2 - f9,2 - f10,2 - f11,2
            - f0,3 - f1,3 - f2,3 - f3,3 - f4,3 - f5,3 - f6,3 - f7,3 - f8,3
            - f9,3 - f10,3 - f11,3  = 0
 c10_1:     - y1,4,0 - y2,3,0 - y6,7,0 - y8,9,0 - y10,1,0 + y1,4,1 + y2,3,1
            + y6,7,1 + y8,9,1 + y10,1,1 <= 0
 c19_0:     y1,4,0 + y2,3,0 + y6,7,0 + y8,9,0 + y10,1,0 - f0,1 - f1,1 - f2,1
            - f3,1 - f4,1 - f5,1 - f6,1 - f7,1 - f8,1 - f9,1 - f10,1 - f11,1
            - f0,2 - f1,2 - f2,2 - f3,2 - f4,2 - f5,2 - f6,2 - f7,2 - f8,2
            - f9,2 - f10,2 - f11,2 - f0,3 - f1,3 - f2,3 - f3,3 - f4,3 - f5,3
            - f6,3 - f7,3 - f8,3 - f9,3 - f10,3 - f11,3  = 0
 c12:       f0,0 + 2 f1,0 - 2 s2 + 3 f2,0 - 3 s3 + 2 f3,0 - 2 s4 + 4 f4,0
            - 4 s5 + 5 f5,0 - 5 s6 + 6 f6,0 - 6 s7 + 7 f7,0 - 7 s8 + 8 f8,0
            - 8 s9 + 9 f9,0 - 9 s10 - s11 + f0,1 + 2 f1,1 + 3 f2,1 + 2 f3,1
            + 4 f4,1 + 5 f5,1 + 6 f6,1 + 7 f7,1 + 8 f8,1 + 9 f9,1 + f0,2
            + 2 f1,2 + 3 f2,2 + 2 f3,2 + 4 f4,2 + 5 f5,2 + 6 f6,2 + 7 f7,2
            + 8 f8,2 + 9 f9,2 + f0,3 + 2 f1,3 + 3 f2,3 + 2 f3,3 + 4 f4,3
            + 5 f5,3 + 6 f6,3 + 7 f7,3 + 8 f8,3 + 9 f9,3  = 0
 c13_0:     x0,11,0 + x0,11,1 + x0,11,2 + x0,11,3 <= 1
 c14_0:     x10,0,0 + x10,0,1 + x10,0,2 + x10,0,3 <= 1
 c13_1:     x1,4,0 + x1,4,1 + x1,4,2 + x1,4,3 + x1,2,0 + y1,4,0 + x1,2,1
            + y1,4,1 + x1,2,2 + y1,4,2 + x1,2,3 <= 1
 c14_1:     x10,1,0 + x10,1,1 + x10,1,2 + x10,1,3 + x11,1,0 + y10,1,0 + x11,1,1
            + y10,1,1 + x11,1,2 + y10,1,2 + x11,1,3 <= 1
 c13_2:     x2,3,0 + x2,3,1 + x2,3,2 + x2,3,3 + y2,3,0 + y2,3,1 + y2,3,2 <= 1
 c14_2:     x1,2,0 + x1,2,1 + x1,2,2 + x1,2,3 <= 1
 c13_3:     x3,4,0 + x3,4,1 + x3,4,2 + x3,4,3 <= 1
 c14_3:     x2,3,0 + x2,3,1 + x2,3,2 + x2,3,3 + y2,3,0 + y2,3,1 + y2,3,2 <= 1
 c13_4:     x4,5,0 + x4,5,1 + x4,5,2 + x4,5,3 <= 1
 c14_4:     x1,4,0 + x1,4,1 + x1,4,2 + x1,4,3 + y1,4,0 + x3,4,0 + y1,4,1
            + x3,4,1 + y1,4,2 + x3,4,2 + x3,4,3 <= 1
 c13_5:     x5,6,0 + x5,6,1 + x5,6,2 + x5,6,3 <= 1
 c14_5:     x4,5,0 + x4,5,1 + x4,5,2 + x4,5,3 <= 1
 c13_6:     x6,7,0 + x6,7,1 + x6,7,2 + x6,7,3 + y6,7,0 + y6,7,1 + y6,7,2 <= 1
 c14_6:     x5,6,0 + x5,6,1 + x5,6,2 + x5,6,3 <= 1
 c13_7:     x7,8,0 + x7,8,1 + x7,8,2 + x7,8,3 <= 1
 c14_7:     x6,7,0 + x6,7,1 + x6,7,2 + x6,7,3 + y6,7,0 + y6,7,1 + y6,7,2 <= 1
 c13_8:     x8,9,0 + y8,9,0 + x8,9,1 + y8,9,1 + x8,9,2 + y8,9,2 + x8,9,3 <= 1
 c14_8:     x7,8,0 + x7,8,1 + x7,8,2 + x7,8,3 <= 1
 c13_9:     <= 1
 c14_9:     x8,9,0 + y8,9,0 + x8,9,1 + y8,9,1 + x8,9,2 + y8,9,2 + x8,9,3 <= 1
 c13_10:    x10,1,0 + x10,1,1 + x10,1,2 + x10,1,3 + x10,0,0 + y10,1,0 + x10,0,1
            + y10,1,1 + x10,0,2 + y10,1,2 + x10,0,3 <= 1
 c14_10:    <= 1
 c13_11:    x11,1,0 + x11,1,1 + x11,1,2 + x11,1,3 <= 1
 c14_11:    x0,11,0 + x0,11,1 + x0,11,2 + x0,11,3 <= 1
Bounds
 0 <= x1,4,0 <= 1
 0 <= x1,4,1 <= 1
 0 <= x1,4,2 <= 1
 0 <= x1,4,3 <= 1
 0 <= x2,3,0 <= 1
 0 <= x2,3,1 <= 1
 0 <= x2,3,2 <= 1
 0 <= x2,3,3 <= 1
 0 <= x6,7,0 <= 1
 0 <= x6,7,1 <= 1
 0 <= x6,7,2 <= 1
 0 <= x6,7,3 <= 1
 0 <= x10,1,0 <= 1
 0 <= x10,1,1 <= 1
 0 <= x10,1,2 <= 1
 0 <= x10,1,3 <= 1
 0 <= s0 <= 1
 0 <= x10,0,0 <= 1
 0 <= f0,0 <= 1
 0 <= x0,11,0 <= 1
 0 <= s1 <= 1
 0 <= x11,1,0 <= 1
 0 <= f1,0 <= 1
 0 <= x1,2,0 <= 1
 0 <= y1,4,0 <= 1
 0 <= s2 <= 1
 0 <= f2,0 <= 1
 0 <= y2,3,0 <= 1
 0 <= s3 <= 1
 0 <= f3,0 <= 1
 0 <= x3,4,0 <= 1
 0 <= s4 <= 1
 0 <= f4,0 <= 1
 0 <= x4,5,0 <= 1
 0 <= s5 <= 1
 0 <= f5,0 <= 1
 0 <= x5,6,0 <= 1
 0 <= s6 <= 1
 0 <= f6,0 <= 1
 0 <= y6,7,0 <= 1
 0 <= s7 <= 1
 0 <= f7,0 <= 1
 0 <= x7,8,0 <= 1
 0 <= s8 <= 1
 0 <= f8,0 <= 1
 0 <= x8,9,0 <= 1
 0 <= y8,9,0 <= 1
 0 <= s9 <= 1
 0 <= f9,0 <= 1
 0 <= s10 <= 1
 0 <= f10,0 <= 1
 0 <= y10,1,0 <= 1
 0 <= s11 <= 1
 0 <= f11,0 <= 1
 0 <= x10,0,1 <= 1
 0 <= f0,1 <= 1
 0 <= x0,11,1 <= 1
 0 <= x11,1,1 <= 1
 0 <= f1,1 <= 1
 0 <= x1,2,1 <= 1
 0 <= y1,4,1 <= 1
 0 <= f2,1 <= 1
 0 <= y2,3,1 <= 1
 0 <= f3,1 <= 1
 0 <= x3,4,1 <= 1
 0 <= f4,1 <= 1
 0 <= x4,5,1 <= 1
 0 <= f5,1 <= 1
 0 <= x5,6,1 <= 1
 0 <= f6,1 <= 1
 0 <= y6,7,1 <= 1
 0 <= f7,1 <= 1
 0 <= x7,8,1 <= 1
 0 <= f8,1 <= 1
 0 <= x8,9,1 <= 1
 0 <= y8,9,1 <= 1
 0 <= f9,1 <= 1
 0 <= f10,1 <= 1
 0 <= y10,1,1 <= 1
 0 <= f11,1 <= 1
 0 <= x10,0,2 <= 1
 0 <= f0,2 <= 1
 0 <= x0,11,2 <= 1
 0 <= x11,1,2 <= 1
 0 <= f1,2 <= 1
 0 <= x1,2,2 <= 1
 0 <= y1,4,2 <= 1
 0 <= f2,2 <= 1
 0 <= y2,3,2 <= 1
 0 <= f3,2 <= 1
 0 <= x3,4,2 <= 1
 0 <= f4,2 <= 1
 0 <= x4,5,2 <= 1
 0 <= f5,2 <= 1
 0 <= x5,6,2 <= 1
 0 <= f6,2 <= 1
 0 <= y6,7,2 <= 1
 0 <= f7,2 <= 1
 0 <= x7,8,2 <= 1
 0 <= f8,2 <= 1
 0 <= x8,9,2 <= 1
 0 <= y8,9,2 <= 1
 0 <= f9,2 <= 1
 0 <= f10,2 <= 1
 0 <= y10,1,2 <= 1
 0 <= f11,2 <= 1
 0 <= x10,0,3 <= 1
 0 <= f0,3 <= 1
 0 <= x0,11,3 <= 1
 0 <= x11,1,3 <= 1
 0 <= f1,3 <= 1
 0 <= x1,2,3 <= 1
 0 <= f2,3 <= 1
 0 <= f3,3 <= 1
 0 <= x3,4,3 <= 1
 0 <= f4,3 <= 1
 0 <= x4,5,3 <= 1
 0 <= f5,3 <= 1
 0 <= x5,6,3 <= 1
 0 <= f6,3 <= 1
 0 <= f7,3 <= 1
 0 <= x7,8,3 <= 1
 0 <= f8,3 <= 1
 0 <= x8,9,3 <= 1
 0 <= f9,3 <= 1
 0 <= f10,3 <= 1
 0 <= f11,3 <= 1
 0 <= x128 <= 1
 0 <= x129 <= 1
 0 <= x130 <= 1
 0 <= x131 <= 1
 0 <= x132 <= 1
 0 <= x133 <= 1
 0 <= x134 <= 1
Binaries
 x1,4,0  x1,4,1  x1,4,2  x1,4,3  x2,3,0  x2,3,1  x2,3,2  x2,3,3  x6,7,0 
 x6,7,1  x6,7,2  x6,7,3  x10,1,0  x10,1,1  x10,1,2  x10,1,3  s0  x10,0,0  f0,0 
 x0,11,0  s1  x11,1,0  f1,0  x1,2,0  y1,4,0  s2  f2,0  y2,3,0  s3  f3,0 
 x3,4,0  s4  f4,0  x4,5,0  s5  f5,0  x5,6,0  s6  f6,0  y6,7,0  s7  f7,0 
 x7,8,0  s8  f8,0  x8,9,0  y8,9,0  s9  f9,0  s10  f10,0  y10,1,0  s11  f11,0 
 x10,0,1  f0,1  x0,11,1  x11,1,1  f1,1  x1,2,1  y1,4,1  f2,1  y2,3,1  f3,1 
 x3,4,1  f4,1  x4,5,1  f5,1  x5,6,1  f6,1  y6,7,1  f7,1  x7,8,1  f8,1  x8,9,1 
 y8,9,1  f9,1  f10,1  y10,1,1  f11,1  x10,0,2  f0,2  x0,11,2  x11,1,2  f1,2 
 x1,2,2  y1,4,2  f2,2  y2,3,2  f3,2  x3,4,2  f4,2  x4,5,2  f5,2  x5,6,2  f6,2 
 y6,7,2  f7,2  x7,8,2  f8,2  x8,9,2  y8,9,2  f9,2  f10,2  y10,1,2  f11,2 
 x10,0,3  f0,3  x0,11,3  x11,1,3  f1,3  x1,2,3  f2,3  f3,3  x3,4,3  f4,3 
 x4,5,3  f5,3  x5,6,3  f6,3  f7,3  x7,8,3  f8,3  x8,9,3  f9,3  f10,3  f11,3 
 x128  x129  x130  x131  x132  x133  x134 
End
